p cnf 60 223
1 -2 -3 0
-1 2 -3 0
1 2 3 0
-1 -2 3 0
5 -1 0
5 4 0
1 -4 -5 0
3 -5 -6 0
-3 5 -6 0
3 5 6 0
-3 -5 6 0
3 6 -7 0
-3 -6 -7 0
3 -6 7 0
-3 6 7 0
8 4 -9 0
-8 -4 -9 0
8 -4 9 0
-8 4 9 0
-9 10 -11 0
9 -10 -11 0
-9 -10 11 0
9 10 11 0
13 3 0
13 -12 0
-3 12 -13 0
14 -13 0
14 10 0
13 -10 -14 0
15 -11 0
15 -14 0
11 14 -15 0
-15 -12 -16 0
15 12 -16 0
-15 12 16 0
15 -12 16 0
7 -16 -17 0
-7 16 -17 0
7 16 17 0
-7 -16 17 0
18 3 -19 0
-18 -3 -19 0
18 -3 19 0
-18 3 19 0
-14 19 -20 0
14 -19 -20 0
-14 -19 20 0
14 19 20 0
-22 -21 0
-22 -8 0
21 8 22 0
-20 22 -23 0
20 -22 -23 0
-20 -22 23 0
20 22 23 0
24 -5 0
24 -21 0
5 21 -24 0
12 24 -25 0
-12 -24 -25 0
12 -24 25 0
-12 24 25 0
23 -25 -26 0
-23 25 -26 0
23 25 26 0
-23 -25 26 0
27 -17 0
27 26 0
17 -26 -27 0
-2 4 -28 0
2 -4 -28 0
-2 -4 28 0
2 4 28 0
29 -28 0
29 -28 0
28 -29 0
30 -22 0
30 -29 0
22 29 -30 0
-31 22 0
-31 30 0
-22 -30 31 0
33 24 0
33 -32 0
-24 32 -33 0
-34 31 0
-34 33 0
-31 -33 34 0
27 34 -35 0
-27 -34 -35 0
27 -34 35 0
-27 34 35 0
-36 -29 0
-36 -9 0
29 9 36 0
37 -36 0
37 1 0
36 -1 -37 0
38 -35 0
38 37 0
35 -37 -38 0
39 1 0
39 21 0
-1 -21 -39 0
-29 -15 -40 0
29 15 -40 0
-29 15 40 0
29 -15 40 0
41 21 0
41 -18 0
-21 18 -41 0
-42 -40 0
-42 41 0
40 -41 42 0
43 39 0
43 42 0
-39 -42 -43 0
24 -12 -44 0
-24 12 -44 0
24 12 44 0
-24 -12 44 0
-45 -36 0
-45 44 0
36 -44 45 0
46 43 0
46 45 0
-43 -45 -46 0
29 2 -47 0
-29 -2 -47 0
29 -2 47 0
-29 2 47 0
48 -46 0
48 -47 0
46 47 -48 0
-49 -38 0
-49 -48 0
38 48 49 0
-51 -50 0
-51 30 0
50 -30 51 0
3 -13 -52 0
-3 13 -52 0
3 13 52 0
-3 -13 52 0
53 2 0
53 2 0
-2 -53 0
-54 15 0
-54 2 0
-15 -2 54 0
53 -54 -55 0
-53 54 -55 0
53 54 55 0
-53 -54 55 0
56 -52 0
56 55 0
52 -55 -56 0
57 51 0
57 -56 0
-51 56 -57 0
-58 15 0
-58 28 0
-15 -28 58 0
57 -58 -59 0
-57 58 -59 0
57 58 59 0
-57 -58 59 0
49 59 -60 0
-49 -59 -60 0
49 -59 60 0
-49 59 60 0
60 24 -13 -47 -4 0
-21 -41 -43 0
-1 0
44 -33 11 60 -21 28 0
-47 22 -58 41 0
-60 1 16 0
25 -55 -33 0
-31 -36 -25 0
2 -50 0
31 29 38 32 -48 0
36 30 0
-35 25 0
-59 35 -36 -14 0
-42 -28 41 -23 53 0
58 -17 31 43 0
-29 31 -35 57 -21 -12 0
-11 -3 43 0
1 -7 10 44 0
60 -19 0
46 -23 -60 0
49 3 1 -4 0
53 -31 55 -24 -28 -30 0
-11 41 0
20 -5 -2 0
31 -9 53 -52 -7 0
44 56 0
-20 -12 19 39 -38 0
-39 -25 21 13 0
-16 -18 11 -34 0
10 32 33 -36 -29 -9 0
-55 -33 34 -40 52 0
-30 -22 44 6 7 0
57 13 23 37 0
-48 -54 55 0
43 6 21 -60 52 0
20 -9 59 0
-59 -2 -55 -6 35 56 0
-45 -32 28 -18 0
41 15 0
8 -55 54 -20 23 0
59 -43 2 0
8 -6 -60 53 -47 0
-52 35 30 -12 54 0
11 53 54 55 18 0
28 37 48 49 1 -25 0
36 60 9 43 30 0
-40 49 20 50 0
-43 7 -2 51 13 -58 0
39 -14 20 27 0
19 49 0
-11 -4 0
60 0
